% demand
num_movements = 22;
loading_factor = [1150, 1400, 2000, 1450, 1000, 900, 900, 1000, 1400, 950, 2000, 1000, 800, 1300, 950, 800, 2000, 1250, 1500, 1600, 1700, 1800];
pickup_time = [0, 0, 0, 0, 0, 1, 2, 3, 3, 4, 4, 4, 4, 4, 4, 5, 6, 6, 7, 7, 7, 7];
delivery_time = [4, 2, 3, 1, 1, 2, 3, 4, 4, 5, 5, 5, 5, 5, 5, 6, 7, 7, 12, 12, 12, 12];

% transporter definition
total_capacity = 7000;
num_decks = 3;
capacity = [3000, 1000, 3000];

% ways out of decks
num_ways_out = 1;
paths_out = array3d(decks, ways_out, decks, [
% ways out of deck d1
2, 3, 0, 

% ways out of deck d2
3, 0, 0, 

% ways out of deck d3
0, 0, 0,	

]);

